
Gurobi 9.5.0 (linux64) logging started Thu Nov 16 17:34:55 2023

Set parameter LogFile to value "/lustre1/scratch/348/vsc34888/JointResearch/05.Models/06.Benchmarking/E.Representative_days_based_on_Line_Benefits_OptModel/3-bus_ByStages_nc2000/openStarNet_3-bus_ByStages_nc2000.log"
Set parameter Method to value 2
Set parameter MIPFocus to value 1
Set parameter Presolve to value 2
Set parameter RINS to value 100
Set parameter MIPGap to value 0.01
Set parameter Threads to value 36
Set parameter TimeLimit to value 604800
Set parameter IterationLimit to value 760000000
Gurobi Optimizer version 9.5.0 build v9.5.0rc5 (linux64)
Thread count: 36 physical cores, 36 logical processors, using up to 36 threads
Optimize a model with 132069 rows, 59421 columns and 380339 nonzeros
Model fingerprint: 0xd772910d
Variable types: 59412 continuous, 9 integer (9 binary)
Coefficient statistics:
  Matrix range     [1e-03, 8e+02]
  Objective range  [1e+00, 1e+00]
  Bounds range     [6e-06, 2e+00]
  RHS range        [6e-06, 1e+00]
Presolve removed 48027 rows and 14011 columns
Presolve time: 0.32s
Presolved: 84042 rows, 45410 columns, 297527 nonzeros
Variable types: 45401 continuous, 9 integer (9 binary)
Root relaxation presolved: 84042 rows, 45410 columns, 297527 nonzeros

Root barrier log...

Ordering time: 0.02s

Barrier statistics:
 Dense cols : 9
 AA' NZ     : 7.444e+05
 Factor NZ  : 1.267e+06 (roughly 60 MB of memory)
 Factor Ops : 2.603e+07 (less than 1 second per iteration)
 Threads    : 35

                  Objective                Residual
Iter       Primal          Dual         Primal    Dual     Compl     Time
   0   3.87586808e+05 -5.41388665e+08  1.54e+01 2.62e+01  5.10e+03     1s
   1   2.79427667e+04 -1.08828612e+07  1.07e+00 3.82e-08  1.70e+02     1s
   2   3.52054247e+03 -3.58590603e+06  3.21e-02 2.81e-08  2.36e+01     1s
   3   2.16433039e+03 -1.08538204e+05  5.57e-04 4.38e-09  6.81e-01     1s
   4   1.15822270e+03 -3.24808766e+04  9.07e-05 1.30e-09  2.07e-01     1s
   5   7.25176282e+02 -1.20269480e+04  3.24e-05 4.21e-10  7.83e-02     1s
   6   3.97397557e+02 -4.42629511e+03  1.32e-05 1.45e-10  2.96e-02     1s
   7   2.38659133e+02 -1.13772045e+03  5.57e-06 3.15e-11  8.45e-03     1s
   8   1.14225419e+02 -1.82890994e+02  8.66e-07 5.40e-12  1.82e-03     1s
   9   7.67696020e+01  3.06598857e+01  5.98e-08 6.54e-13  2.83e-04     1s
  10   6.82267673e+01  5.80474203e+01  1.04e-08 2.27e-13  6.25e-05     1s
  11   6.74856875e+01  6.17703561e+01  8.24e-09 2.27e-13  3.51e-05     1s
  12   6.70566319e+01  6.28824420e+01  6.97e-09 2.27e-13  2.56e-05     1s
  13   6.69576080e+01  6.30123261e+01  6.63e-09 4.55e-13  2.42e-05     1s
  14   6.67983360e+01  6.31577111e+01  6.14e-09 2.27e-13  2.24e-05     1s
  15   6.66291862e+01  6.32380894e+01  5.56e-09 2.27e-13  2.08e-05     1s
  16   6.66198840e+01  6.33812227e+01  5.14e-09 3.55e-13  1.99e-05     1s
  17   6.65306055e+01  6.34650839e+01  4.54e-09 3.13e-13  1.88e-05     2s
  18   6.63088110e+01  6.37615594e+01  3.52e-09 2.27e-13  1.56e-05     2s
  19   6.62438139e+01  6.38350074e+01  3.06e-09 2.27e-13  1.48e-05     2s
  20   6.61048897e+01  6.43934392e+01  2.49e-09 3.41e-13  1.05e-05     2s
  21   6.60005434e+01  6.45123159e+01  2.02e-09 2.27e-13  9.14e-06     2s
  22   6.59405361e+01  6.45931378e+01  1.81e-09 2.27e-13  8.27e-06     2s
  23   6.58776578e+01  6.46321846e+01  1.52e-09 2.27e-13  7.65e-06     2s
  24   6.58502238e+01  6.47613992e+01  1.41e-09 1.85e-13  6.69e-06     2s
  25   6.58103605e+01  6.48136550e+01  1.23e-09 2.27e-13  6.12e-06     2s
  26   6.57574264e+01  6.48573049e+01  1.02e-09 2.56e-13  5.53e-06     2s
  27   6.57266909e+01  6.49111830e+01  8.75e-10 2.27e-13  5.01e-06     2s
  28   6.57042359e+01  6.49372268e+01  7.71e-10 4.83e-13  4.71e-06     2s
  29   6.56922993e+01  6.49643039e+01  7.24e-10 2.27e-13  4.47e-06     2s
  30   6.56682692e+01  6.50192468e+01  6.33e-10 2.27e-13  3.99e-06     2s
  31   6.56319213e+01  6.50460961e+01  4.70e-10 2.27e-13  3.60e-06     2s
  32   6.56119124e+01  6.51034688e+01  3.89e-10 2.27e-13  3.12e-06     2s
  33   6.55838165e+01  6.51409211e+01  2.78e-10 2.27e-13  2.72e-06     2s
  34   6.55520208e+01  6.52463442e+01  1.47e-10 2.27e-13  1.88e-06     2s
  35   6.55440480e+01  6.52672509e+01  1.33e-10 2.27e-13  1.70e-06     2s
  36   6.55431843e+01  6.52737861e+01  1.30e-10 3.41e-13  1.65e-06     3s
  37   6.55398743e+01  6.52941726e+01  1.16e-10 2.27e-13  1.51e-06     3s
  38   6.55343282e+01  6.53117955e+01  9.63e-11 2.27e-13  1.37e-06     3s
  39   6.55278509e+01  6.53440867e+01  7.57e-11 2.27e-13  1.13e-06     3s
  40   6.55177262e+01  6.54751140e+01  3.69e-11 2.27e-13  2.62e-07     3s
  41   6.55073042e+01  6.54777693e+01  5.65e-10 2.27e-13  1.81e-07     3s
  42   6.55061273e+01  6.54805021e+01  3.12e-10 2.27e-13  1.57e-07     3s
  43   6.55057376e+01  6.54855072e+01  2.08e-10 2.27e-13  1.24e-07     3s
  44   6.55051779e+01  6.55040696e+01  7.89e-11 3.41e-13  6.81e-09     3s
  45   6.55048744e+01  6.55046898e+01  6.45e-10 2.27e-13  1.13e-09     3s
  46   6.55046956e+01  6.55046956e+01  7.88e-10 2.27e-13  1.10e-13     3s

Barrier solved model in 46 iterations and 2.96 seconds (2.41 work units)
Optimal objective 6.55046956e+01


Root relaxation: objective 6.550470e+01, 8013 iterations, 2.84 seconds (2.38 work units)

    Nodes    |    Current Node    |     Objective Bounds      |     Work
 Expl Unexpl |  Obj  Depth IntInf | Incumbent    BestBd   Gap | It/Node Time

     0     0   65.50470    0    3          -   65.50470      -     -    3s
H    0     0                      74.8331511   65.50470  12.5%     -    3s
H    0     0                      65.7937992   65.50470  0.44%     -    4s

Explored 1 nodes (8013 simplex iterations) in 4.25 seconds (3.45 work units)
Thread count was 36 (of 36 available processors)

Solution count 2: 65.7938 74.8332 

Optimal solution found (tolerance 1.00e-02)
Best objective 6.579379921222e+01, best bound 6.550469561397e+01, gap 0.4394%

Gurobi 9.5.0 (linux64) logging started Thu Nov 16 17:39:57 2023

Set parameter LogFile to value "/lustre1/scratch/348/vsc34888/JointResearch/05.Models/06.Benchmarking/E.Representative_days_based_on_Line_Benefits_OptModel/3-bus_ByStages_nc2000/openStarNet_3-bus_ByStages_nc2000.log"
Set parameter Method to value 2
Set parameter MIPFocus to value 1
Set parameter Presolve to value 2
Set parameter RINS to value 100
Set parameter MIPGap to value 0.01
Set parameter Threads to value 36
Set parameter TimeLimit to value 604800
Set parameter IterationLimit to value 760000000
No parameters matching 'relax_integrality' found
Gurobi Optimizer version 9.5.0 build v9.5.0rc5 (linux64)
Thread count: 36 physical cores, 36 logical processors, using up to 36 threads
Optimize a model with 132069 rows, 59412 columns and 308294 nonzeros
Model fingerprint: 0xe4c3c61c
Coefficient statistics:
  Matrix range     [1e-03, 8e+02]
  Objective range  [1e+00, 1e+00]
  Bounds range     [6e-06, 2e+00]
  RHS range        [6e-06, 1e+00]
Presolve removed 118062 rows and 34028 columns
Presolve time: 0.10s
Presolved: 14007 rows, 25384 columns, 51397 nonzeros

Ordering time: 0.00s

Barrier statistics:
 AA' NZ     : 3.402e+04
 Factor NZ  : 5.603e+04 (roughly 16 MB of memory)
 Factor Ops : 2.801e+05 (less than 1 second per iteration)
 Threads    : 1

                  Objective                Residual
Iter       Primal          Dual         Primal    Dual     Compl     Time
   0   4.49274003e+05 -5.61554373e+08  3.91e+01 8.29e+01  1.66e+04     0s
   1   2.14307279e+04 -9.37290467e+06  2.32e+00 1.07e-12  4.27e+02     0s
   2   2.18828589e+03 -1.14635252e+06  2.35e-02 1.48e-12  2.46e+01     0s
   3   1.46882419e+03 -2.41067886e+04  4.50e-04 6.39e-13  5.06e-01     0s
   4   6.02040617e+02 -5.55749513e+03  7.68e-06 3.03e-12  1.21e-01     0s
   5   4.33212509e+02 -1.67911876e+03  4.30e-06 1.00e-12  4.16e-02     0s
   6   2.13376129e+02 -4.92194757e+02  1.35e-06 4.36e-13  1.39e-02     0s
   7   1.22845120e+02 -8.97980317e+01  3.08e-07 2.51e-13  4.19e-03     0s
   8   8.83762455e+01  3.60123417e+00  8.89e-08 2.27e-13  1.67e-03     0s
   9   6.92665859e+01  4.66365653e+01  8.98e-09 1.14e-13  4.46e-04     0s
  10   6.68364088e+01  6.15363955e+01  2.37e-09 2.27e-13  1.04e-04     0s
  11   6.59317566e+01  6.53533989e+01  1.21e-09 2.27e-13  1.14e-05     0s
  12   6.58050135e+01  6.57842673e+01  4.17e-09 3.41e-13  4.09e-07     0s
  13   6.57940537e+01  6.57935436e+01  5.63e-09 1.14e-13  1.00e-08     0s
  14   6.57939791e+01  6.57937064e+01  4.29e-07 1.14e-13  5.37e-09     0s
  15   6.57938896e+01  6.57937990e+01  1.19e-06 2.27e-13  1.78e-09     0s
  16   6.57938058e+01  6.57937935e+01  1.60e-06 2.27e-13  2.43e-10     0s
  17   6.57937992e+01  6.57937992e+01  2.50e-06 1.14e-13  2.43e-13     0s
  18   6.57937992e+01  6.57937992e+01  2.50e-06 2.27e-13  2.44e-19     0s

Barrier performed 18 iterations in 0.22 seconds (0.24 work units)
Sub-optimal termination - objective 6.57940537e+01

Crossover log...

     303 DPushes remaining with DInf 0.0000000e+00                 0s
       0 DPushes remaining with DInf 0.0000000e+00                 0s

    2014 PPushes remaining with PInf 1.4372000e-06                 0s
       0 PPushes remaining with PInf 1.4372000e-06                 0s

  Push phase complete: Pinf 1.4372000e-06, Dinf 8.2593654e-14      0s

Iteration    Objective       Primal Inf.    Dual Inf.      Time
    2320    6.5793799e+01   1.437200e-06   0.000000e+00      0s
    2321    6.5793799e+01   0.000000e+00   0.000000e+00      0s

Solved in 2321 iterations and 0.30 seconds (0.30 work units)
Optimal objective  6.579379921e+01
